
(set-logic ALL) 

(declare-datatype MyList ((Nil) (Cons (head Real) (tail MyList)) )) 
(declare-fun l0 () MyList) 
(declare-fun l1 () MyList) 
(declare-fun l2 () MyList) 
(declare-fun l3 () MyList) 
(declare-fun i0 () Real) 
(declare-fun i1 () Real) 
(assert (is-Nil Nil) )
(assert (or (= l3 Nil) (= l0 l3) (is-Cons Nil)) )
(assert (or (= l1 Nil) (is-Nil Nil) (= l2 l3) (= l3 l2)) )
(assert (= l1 Nil) )
(assert (and (= l3 Nil) (= l2 Nil) (= l2 Nil) (= l3 Nil)) )
(assert (= l0 Nil) )
(assert (and (is-Nil Nil) (= l0 Nil) (= l1 l0) (is-Nil Nil)) )
(assert (= l0 l1) )
(check-sat)
